plate_width = 11;
n_circuits = 7;
n_shapes = 13;
widths = [3, 3, 3, 3, 5, 5, 8];
lengths = [3, 4, 5, 6, 3, 4, 4];
sizes = [| 3, 3 | 3, 4 | 4, 3 | 3, 5 | 5, 3 | 3, 6 | 6, 3 | 5, 3 | 3, 5 | 5, 4 | 4, 5 | 8, 4 | 4, 8 |];
offsets = [| 0, 0 | 0, 0 | 0, 0 | 0, 0 | 0, 0 | 0, 0 | 0, 0 | 0, 0 | 0, 0 | 0, 0 | 0, 0 | 0, 0 | 0, 0 |];
shapes = [{1}, {2}, {3}, {4}, {5}, {6}, {7}, {8}, {9}, {10}, {11}, {12}, {13}];
valid_shapes = [{1}, {2, 3}, {4, 5}, {6, 7}, {8, 9}, {10, 11}, {12, 13}];